
Gurobi 11.0.3 (linux64, C++) logging started Mon Oct  7 18:23:48 2024


Gurobi 8.1.1 (linux64, C++) logging started Mon Oct  7 19:28:30 2024


Gurobi 8.1.1 (linux64, C++) logging started Mon Oct  7 19:29:50 2024


Gurobi 8.1.1 (linux64, C++) logging started Mon Oct  7 20:34:13 2024


Gurobi 11.0.3 (linux64, gurobi_cl) logging started Mon Oct  7 20:34:44 2024

Set parameter Username
Set parameter LicenseID to value 2463973
Set parameter LogFile to value "gurobi.log"
Using license file /home/jungle/Documents/gurobi.lic

Gurobi 11.0.3 (linux64, gurobi_cl) logging started Mon Oct  7 20:35:49 2024

Set parameter LogFile to value "gurobi.log"
Using license file /home/jungle/Documents/gurobi.lic

Gurobi 11.0.3 (linux64, gurobi_cl) logging started Mon Oct  7 20:35:55 2024

Set parameter Username
Set parameter LogFile to value "gurobi.log"
Using license file /home/jungle/gurobi.lic
Academic license - for non-commercial use only - expires 2025-10-08

Gurobi 8.1.1 (linux64, C++) logging started Mon Oct  7 20:35:57 2024

Academic license - for non-commercial use only

Gurobi 8.1.1 (linux64, C++) logging started Mon Oct  7 20:38:00 2024

Academic license - for non-commercial use only

Gurobi 8.1.1 (linux64, C++) logging started Tue Oct  8 15:08:48 2024

Academic license - for non-commercial use only

Gurobi 8.1.1 (linux64, C++) logging started Tue Oct  8 15:08:56 2024

Academic license - for non-commercial use only

Gurobi 8.1.1 (linux64, C++) logging started Tue Oct  8 15:09:57 2024

Academic license - for non-commercial use only

Gurobi 8.1.1 (linux64, C++) logging started Tue Oct  8 15:36:54 2024

Academic license - for non-commercial use only

Gurobi 8.1.1 (linux64, C++) logging started Tue Oct  8 15:36:55 2024

Academic license - for non-commercial use only

Gurobi 8.1.1 (linux64, C++) logging started Tue Oct  8 15:36:56 2024

Academic license - for non-commercial use only

Gurobi 8.1.1 (linux64, C++) logging started Tue Oct  8 15:37:26 2024

Academic license - for non-commercial use only

Gurobi 8.1.1 (linux64, C++) logging started Tue Oct  8 15:37:27 2024

Academic license - for non-commercial use only

Gurobi 8.1.1 (linux64, C++) logging started Tue Oct  8 15:41:37 2024

Academic license - for non-commercial use only

Gurobi 8.1.1 (linux64, C++) logging started Tue Oct  8 15:41:56 2024

Academic license - for non-commercial use only

Gurobi 8.1.1 (linux64, C++) logging started Tue Oct  8 15:41:59 2024

Academic license - for non-commercial use only

Gurobi 8.1.1 (linux64, C++) logging started Tue Oct  8 15:42:02 2024

Academic license - for non-commercial use only

Gurobi 8.1.1 (linux64, C++) logging started Tue Oct  8 16:01:16 2024

Academic license - for non-commercial use only

Gurobi 8.1.1 (linux64, C++) logging started Tue Oct  8 16:02:12 2024

Academic license - for non-commercial use only

Gurobi 8.1.1 (linux64, C++) logging started Tue Oct  8 16:03:15 2024

Academic license - for non-commercial use only

Gurobi 8.1.1 (linux64, C++) logging started Tue Oct  8 16:21:06 2024

Academic license - for non-commercial use only

Gurobi 8.1.1 (linux64, C++) logging started Tue Oct  8 16:21:28 2024

Academic license - for non-commercial use only

Gurobi 8.1.1 (linux64, C++) logging started Tue Oct  8 16:21:53 2024

Academic license - for non-commercial use only

Gurobi 8.1.1 (linux64, C++) logging started Tue Oct  8 16:27:29 2024

Academic license - for non-commercial use only

Gurobi 8.1.1 (linux64, C++) logging started Tue Oct  8 16:28:54 2024

Academic license - for non-commercial use only

Gurobi 8.1.1 (linux64, C++) logging started Tue Oct  8 17:10:03 2024

Academic license - for non-commercial use only

Gurobi 8.1.1 (linux64, C++) logging started Tue Oct  8 17:17:41 2024

Academic license - for non-commercial use only

Gurobi 8.1.1 (linux64, C++) logging started Tue Oct  8 17:20:05 2024

Academic license - for non-commercial use only

Gurobi 8.1.1 (linux64, C++) logging started Wed Oct  9 20:56:27 2024

Academic license - for non-commercial use only

Gurobi 8.1.1 (linux64, C++) logging started Wed Oct  9 20:56:49 2024

Academic license - for non-commercial use only

Gurobi 8.1.1 (linux64, C++) logging started Wed Oct  9 20:58:13 2024

Academic license - for non-commercial use only

Gurobi 8.1.1 (linux64, C++) logging started Thu Oct 10 12:43:01 2024

Academic license - for non-commercial use only

Gurobi 8.1.1 (linux64, C++) logging started Thu Oct 10 12:43:32 2024

Academic license - for non-commercial use only

Gurobi 8.1.1 (linux64, C++) logging started Thu Oct 10 12:43:41 2024

Academic license - for non-commercial use only

Gurobi 8.1.1 (linux64, C++) logging started Thu Oct 10 12:48:59 2024

Academic license - for non-commercial use only

Gurobi 8.1.1 (linux64, C++) logging started Thu Oct 10 12:49:13 2024

Academic license - for non-commercial use only

Gurobi 8.1.1 (linux64, C++) logging started Thu Oct 10 12:51:24 2024

Academic license - for non-commercial use only

Gurobi 8.1.1 (linux64, C++) logging started Thu Oct 10 13:41:58 2024

Academic license - for non-commercial use only

Gurobi 8.1.1 (linux64, C++) logging started Thu Oct 10 13:42:20 2024

Academic license - for non-commercial use only

Gurobi 8.1.1 (linux64, C++) logging started Thu Oct 10 13:42:28 2024

Academic license - for non-commercial use only

Gurobi 8.1.1 (linux64, C++) logging started Thu Oct 10 13:43:28 2024

Academic license - for non-commercial use only

Gurobi 8.1.1 (linux64, C++) logging started Thu Oct 10 13:47:16 2024

Academic license - for non-commercial use only

Gurobi 8.1.1 (linux64, C++) logging started Thu Oct 10 13:48:48 2024

Academic license - for non-commercial use only

Gurobi 8.1.1 (linux64, C++) logging started Thu Oct 10 13:51:02 2024

Academic license - for non-commercial use only

Gurobi 8.1.1 (linux64, C++) logging started Thu Oct 10 13:53:46 2024

Academic license - for non-commercial use only

Gurobi 8.1.1 (linux64, C++) logging started Thu Oct 10 18:40:48 2024

Academic license - for non-commercial use only

Gurobi 8.1.1 (linux64, C++) logging started Thu Oct 10 18:42:01 2024

Academic license - for non-commercial use only

Gurobi 8.1.1 (linux64, C++) logging started Thu Oct 10 18:44:09 2024

Academic license - for non-commercial use only

Gurobi 8.1.1 (linux64, C++) logging started Thu Oct 10 19:51:37 2024

Academic license - for non-commercial use only

Gurobi 8.1.1 (linux64, C++) logging started Thu Oct 10 19:52:02 2024

Academic license - for non-commercial use only

Gurobi 8.1.1 (linux64, C++) logging started Thu Oct 10 19:52:46 2024

Academic license - for non-commercial use only

Gurobi 8.1.1 (linux64, C++) logging started Thu Oct 10 19:59:58 2024

Academic license - for non-commercial use only

Gurobi 8.1.1 (linux64, C++) logging started Thu Oct 10 20:00:16 2024

Academic license - for non-commercial use only

Gurobi 8.1.1 (linux64, C++) logging started Thu Oct 10 20:00:43 2024

Academic license - for non-commercial use only

Gurobi 8.1.1 (linux64, C++) logging started Thu Oct 10 20:04:56 2024

Academic license - for non-commercial use only

Gurobi 8.1.1 (linux64, C++) logging started Thu Oct 10 20:24:53 2024

Academic license - for non-commercial use only

Gurobi 8.1.1 (linux64, C++) logging started Thu Oct 10 20:27:19 2024

Academic license - for non-commercial use only

Gurobi 8.1.1 (linux64, C++) logging started Thu Oct 10 20:39:05 2024

Academic license - for non-commercial use only

Gurobi 8.1.1 (linux64, C++) logging started Thu Oct 31 19:17:31 2024

Academic license - for non-commercial use only

Gurobi 8.1.1 (linux64, C++) logging started Thu Oct 31 19:18:55 2024

Academic license - for non-commercial use only

Gurobi 8.1.1 (linux64, C++) logging started Thu Oct 31 19:20:32 2024

Academic license - for non-commercial use only

Gurobi 8.1.1 (linux64, C++) logging started Thu Oct 31 19:20:40 2024

Academic license - for non-commercial use only

Gurobi 8.1.1 (linux64, C++) logging started Thu Oct 31 19:21:39 2024

Academic license - for non-commercial use only

Gurobi 8.1.1 (linux64, C++) logging started Thu Oct 31 19:22:16 2024

Academic license - for non-commercial use only

Gurobi 8.1.1 (linux64, C++) logging started Thu Oct 31 19:22:57 2024

Academic license - for non-commercial use only

Gurobi 8.1.1 (linux64, C++) logging started Thu Oct 31 19:26:54 2024

Academic license - for non-commercial use only

Gurobi 8.1.1 (linux64, C++) logging started Thu Oct 31 19:27:06 2024

Academic license - for non-commercial use only

Gurobi 8.1.1 (linux64, C++) logging started Thu Oct 31 19:30:58 2024

Academic license - for non-commercial use only

Gurobi 8.1.1 (linux64, C++) logging started Thu Oct 31 19:39:05 2024

Academic license - for non-commercial use only

Gurobi 8.1.1 (linux64, C++) logging started Thu Oct 31 19:43:51 2024

Academic license - for non-commercial use only

Gurobi 8.1.1 (linux64, C++) logging started Thu Oct 31 19:45:27 2024

Academic license - for non-commercial use only

Gurobi 8.1.1 (linux64, C++) logging started Thu Oct 31 19:45:40 2024

Academic license - for non-commercial use only

Gurobi 8.1.1 (linux64, C++) logging started Thu Oct 31 19:45:51 2024

Academic license - for non-commercial use only

Gurobi 8.1.1 (linux64, C++) logging started Thu Oct 31 19:46:12 2024

Academic license - for non-commercial use only

Gurobi 8.1.1 (linux64, C++) logging started Thu Oct 31 19:46:20 2024

Academic license - for non-commercial use only

Gurobi 8.1.1 (linux64, C++) logging started Thu Oct 31 19:46:30 2024

Academic license - for non-commercial use only

Gurobi 8.1.1 (linux64, C++) logging started Thu Oct 31 19:48:58 2024

Academic license - for non-commercial use only

Gurobi 8.1.1 (linux64, C++) logging started Thu Oct 31 20:00:53 2024

Academic license - for non-commercial use only

Gurobi 8.1.1 (linux64, C++) logging started Thu Oct 31 20:03:43 2024

Academic license - for non-commercial use only

Gurobi 8.1.1 (linux64, C++) logging started Thu Oct 31 20:04:06 2024

Academic license - for non-commercial use only

Gurobi 8.1.1 (linux64, C++) logging started Thu Oct 31 20:04:16 2024

Academic license - for non-commercial use only

Gurobi 8.1.1 (linux64, C++) logging started Thu Oct 31 20:04:24 2024

Academic license - for non-commercial use only

Gurobi 8.1.1 (linux64, C++) logging started Thu Oct 31 20:11:26 2024

Academic license - for non-commercial use only

Gurobi 8.1.1 (linux64, C++) logging started Thu Oct 31 20:11:34 2024

Academic license - for non-commercial use only

Gurobi 8.1.1 (linux64, C++) logging started Thu Oct 31 20:11:40 2024

Academic license - for non-commercial use only

Gurobi 8.1.1 (linux64, C++) logging started Thu Oct 31 20:11:47 2024

Academic license - for non-commercial use only

Gurobi 8.1.1 (linux64, C++) logging started Thu Oct 31 20:17:22 2024

Academic license - for non-commercial use only

Gurobi 8.1.1 (linux64, C++) logging started Thu Oct 31 20:17:37 2024

Academic license - for non-commercial use only

Gurobi 8.1.1 (linux64, C++) logging started Thu Oct 31 20:17:47 2024

Academic license - for non-commercial use only

Gurobi 8.1.1 (linux64, C++) logging started Fri Nov  1 18:09:35 2024

Academic license - for non-commercial use only

Gurobi 8.1.1 (linux64, C++) logging started Fri Nov  1 18:18:59 2024

Academic license - for non-commercial use only

Gurobi 8.1.1 (linux64, C++) logging started Fri Nov  1 18:19:09 2024

Academic license - for non-commercial use only

Gurobi 8.1.1 (linux64, C++) logging started Fri Nov  1 18:19:16 2024

Academic license - for non-commercial use only

Gurobi 8.1.1 (linux64, C++) logging started Tue Nov  5 17:26:21 2024

Academic license - for non-commercial use only

Gurobi 8.1.1 (linux64, C++) logging started Tue Nov  5 17:48:08 2024

Academic license - for non-commercial use only

Gurobi 8.1.1 (linux64, C++) logging started Tue Nov  5 17:50:47 2024

Academic license - for non-commercial use only

Gurobi 8.1.1 (linux64, C++) logging started Tue Nov  5 17:52:54 2024

Academic license - for non-commercial use only

Gurobi 8.1.1 (linux64, C++) logging started Tue Nov  5 17:54:38 2024

Academic license - for non-commercial use only

Gurobi 8.1.1 (linux64, C++) logging started Tue Nov  5 17:55:22 2024

Academic license - for non-commercial use only

Gurobi 8.1.1 (linux64, C++) logging started Tue Nov  5 17:56:46 2024

Academic license - for non-commercial use only

Gurobi 8.1.1 (linux64, C++) logging started Tue Nov  5 17:57:05 2024

Academic license - for non-commercial use only

Gurobi 8.1.1 (linux64, C++) logging started Tue Nov  5 17:57:21 2024

Academic license - for non-commercial use only

Gurobi 8.1.1 (linux64, C++) logging started Tue Nov  5 18:13:37 2024

Academic license - for non-commercial use only

Gurobi 8.1.1 (linux64, C++) logging started Tue Nov  5 18:14:41 2024

Academic license - for non-commercial use only

Gurobi 8.1.1 (linux64, C++) logging started Tue Nov  5 18:19:17 2024

Academic license - for non-commercial use only

Gurobi 8.1.1 (linux64, C++) logging started Tue Nov  5 18:25:03 2024

Academic license - for non-commercial use only

Gurobi 8.1.1 (linux64, C++) logging started Tue Nov  5 18:25:09 2024

Academic license - for non-commercial use only

Gurobi 8.1.1 (linux64, C++) logging started Tue Nov  5 18:25:30 2024

Academic license - for non-commercial use only

Gurobi 8.1.1 (linux64, C++) logging started Tue Nov  5 18:25:49 2024

Academic license - for non-commercial use only

Gurobi 8.1.1 (linux64, C++) logging started Tue Nov  5 18:26:03 2024

Academic license - for non-commercial use only

Gurobi 8.1.1 (linux64, C++) logging started Tue Nov  5 18:26:14 2024

Academic license - for non-commercial use only

Gurobi 8.1.1 (linux64, C++) logging started Tue Nov  5 19:13:12 2024

Academic license - for non-commercial use only

Gurobi 8.1.1 (linux64, C++) logging started Tue Nov  5 19:14:10 2024

Academic license - for non-commercial use only

Gurobi 8.1.1 (linux64, C++) logging started Tue Nov  5 19:21:48 2024

Academic license - for non-commercial use only

Gurobi 8.1.1 (linux64, C++) logging started Tue Nov  5 19:42:17 2024

Academic license - for non-commercial use only

Gurobi 8.1.1 (linux64, C++) logging started Tue Nov  5 19:57:38 2024

Academic license - for non-commercial use only

Gurobi 8.1.1 (linux64, C++) logging started Tue Nov  5 20:22:02 2024

Academic license - for non-commercial use only

Gurobi 8.1.1 (linux64, C++) logging started Tue Nov  5 20:28:09 2024

Academic license - for non-commercial use only

Gurobi 8.1.1 (linux64, C++) logging started Tue Nov  5 20:30:20 2024

Academic license - for non-commercial use only

Gurobi 8.1.1 (linux64, C++) logging started Tue Nov  5 20:58:41 2024

Academic license - for non-commercial use only

Gurobi 8.1.1 (linux64, C++) logging started Tue Nov  5 21:01:20 2024

Academic license - for non-commercial use only

Gurobi 8.1.1 (linux64, C++) logging started Tue Nov  5 21:03:54 2024

Academic license - for non-commercial use only

Gurobi 8.1.1 (linux64, C++) logging started Tue Nov  5 21:34:53 2024

Academic license - for non-commercial use only

Gurobi 8.1.1 (linux64, C++) logging started Tue Nov  5 21:35:39 2024

Academic license - for non-commercial use only

Gurobi 8.1.1 (linux64, C++) logging started Tue Nov  5 21:44:32 2024

Academic license - for non-commercial use only

Gurobi 8.1.1 (linux64, C++) logging started Tue Nov  5 21:45:26 2024

Academic license - for non-commercial use only

Gurobi 8.1.1 (linux64, C++) logging started Tue Nov  5 21:47:54 2024

Academic license - for non-commercial use only

Gurobi 8.1.1 (linux64, C++) logging started Tue Nov  5 21:49:41 2024

Academic license - for non-commercial use only

Gurobi 8.1.1 (linux64, C++) logging started Tue Nov  5 21:51:12 2024

Academic license - for non-commercial use only

Gurobi 8.1.1 (linux64, C++) logging started Tue Nov  5 21:51:57 2024

Academic license - for non-commercial use only

Gurobi 8.1.1 (linux64, C++) logging started Tue Nov  5 22:03:09 2024

Academic license - for non-commercial use only

Gurobi 8.1.1 (linux64, C++) logging started Tue Nov  5 22:48:14 2024

Academic license - for non-commercial use only

Gurobi 8.1.1 (linux64, C++) logging started Tue Nov  5 22:55:22 2024

Academic license - for non-commercial use only

Gurobi 8.1.1 (linux64, C++) logging started Tue Nov  5 22:57:30 2024

Academic license - for non-commercial use only

Gurobi 8.1.1 (linux64, C++) logging started Thu Nov  7 13:38:40 2024

Academic license - for non-commercial use only

Gurobi 8.1.1 (linux64, C++) logging started Thu Nov  7 13:56:22 2024

Academic license - for non-commercial use only

Gurobi 8.1.1 (linux64, C++) logging started Thu Nov  7 13:58:33 2024

Academic license - for non-commercial use only

Gurobi 8.1.1 (linux64, C++) logging started Thu Nov  7 13:59:12 2024

Academic license - for non-commercial use only

Gurobi 8.1.1 (linux64, C++) logging started Thu Nov  7 14:20:13 2024

Academic license - for non-commercial use only

Gurobi 8.1.1 (linux64, C++) logging started Thu Nov  7 14:21:27 2024

Academic license - for non-commercial use only

Gurobi 8.1.1 (linux64, C++) logging started Thu Nov  7 14:34:38 2024

Academic license - for non-commercial use only

Gurobi 8.1.1 (linux64, C++) logging started Fri Nov  8 17:16:16 2024

Academic license - for non-commercial use only

Gurobi 8.1.1 (linux64, C++) logging started Fri Nov  8 18:27:11 2024

Academic license - for non-commercial use only

Gurobi 8.1.1 (linux64, C++) logging started Fri Nov  8 18:29:03 2024

Academic license - for non-commercial use only

Gurobi 8.1.1 (linux64, C++) logging started Fri Nov  8 18:30:18 2024

Academic license - for non-commercial use only

Gurobi 8.1.1 (linux64, C++) logging started Fri Nov  8 18:52:26 2024

Academic license - for non-commercial use only

Gurobi 8.1.1 (linux64, C++) logging started Fri Nov  8 18:52:31 2024

Academic license - for non-commercial use only

Gurobi 8.1.1 (linux64, C++) logging started Fri Nov  8 18:52:36 2024

Academic license - for non-commercial use only

Gurobi 8.1.1 (linux64, C++) logging started Fri Nov  8 18:52:40 2024

Academic license - for non-commercial use only

Gurobi 8.1.1 (linux64, C++) logging started Fri Nov  8 18:52:45 2024

Academic license - for non-commercial use only

Gurobi 8.1.1 (linux64, C++) logging started Fri Nov  8 18:52:53 2024

Academic license - for non-commercial use only

Gurobi 8.1.1 (linux64, C++) logging started Fri Nov  8 18:52:57 2024

Academic license - for non-commercial use only

Gurobi 8.1.1 (linux64, C++) logging started Fri Nov  8 18:53:00 2024

Academic license - for non-commercial use only

Gurobi 8.1.1 (linux64, C++) logging started Fri Nov  8 18:53:05 2024

Academic license - for non-commercial use only

Gurobi 8.1.1 (linux64, C++) logging started Fri Nov  8 19:34:46 2024

Academic license - for non-commercial use only

Gurobi 8.1.1 (linux64, C++) logging started Fri Nov  8 19:34:59 2024

Academic license - for non-commercial use only

Gurobi 8.1.1 (linux64, C++) logging started Fri Nov  8 19:35:08 2024

Academic license - for non-commercial use only

Gurobi 8.1.1 (linux64, C++) logging started Fri Nov  8 19:35:13 2024

Academic license - for non-commercial use only

Gurobi 8.1.1 (linux64, C++) logging started Fri Nov  8 19:35:17 2024

Academic license - for non-commercial use only

Gurobi 8.1.1 (linux64, C++) logging started Fri Nov  8 19:35:21 2024

Academic license - for non-commercial use only

Gurobi 8.1.1 (linux64, C++) logging started Fri Nov  8 19:35:25 2024

Academic license - for non-commercial use only

Gurobi 8.1.1 (linux64, C++) logging started Fri Nov  8 19:35:30 2024

Academic license - for non-commercial use only

Gurobi 8.1.1 (linux64, C++) logging started Fri Nov  8 19:35:34 2024

Academic license - for non-commercial use only

Gurobi 8.1.1 (linux64, C++) logging started Fri Nov  8 19:35:39 2024

Academic license - for non-commercial use only

Gurobi 8.1.1 (linux64, C++) logging started Mon Nov 11 16:10:16 2024

Academic license - for non-commercial use only

Gurobi 8.1.1 (linux64, C++) logging started Mon Nov 11 16:11:27 2024

Academic license - for non-commercial use only

Gurobi 8.1.1 (linux64, C++) logging started Mon Nov 11 16:11:42 2024

Academic license - for non-commercial use only

Gurobi 8.1.1 (linux64, C++) logging started Mon Nov 11 16:25:19 2024

Academic license - for non-commercial use only

Gurobi 8.1.1 (linux64, C++) logging started Mon Nov 11 16:26:02 2024

Academic license - for non-commercial use only

Gurobi 8.1.1 (linux64, C++) logging started Mon Nov 11 16:29:48 2024

Academic license - for non-commercial use only

Gurobi 8.1.1 (linux64, C++) logging started Mon Nov 11 16:30:34 2024

Academic license - for non-commercial use only

Gurobi 8.1.1 (linux64, C++) logging started Mon Nov 11 16:32:05 2024

Academic license - for non-commercial use only

Gurobi 8.1.1 (linux64, C++) logging started Mon Nov 11 16:32:56 2024

Academic license - for non-commercial use only

Gurobi 8.1.1 (linux64, C++) logging started Mon Nov 11 16:33:57 2024

Academic license - for non-commercial use only

Gurobi 8.1.1 (linux64, C++) logging started Mon Nov 11 16:39:57 2024

Academic license - for non-commercial use only

Gurobi 8.1.1 (linux64, C++) logging started Mon Nov 11 16:40:06 2024

Academic license - for non-commercial use only

Gurobi 8.1.1 (linux64, C++) logging started Mon Nov 11 16:40:13 2024

Academic license - for non-commercial use only

Gurobi 8.1.1 (linux64, C++) logging started Mon Nov 11 16:40:16 2024

Academic license - for non-commercial use only

Gurobi 8.1.1 (linux64, C++) logging started Mon Nov 11 16:40:19 2024

Academic license - for non-commercial use only

Gurobi 8.1.1 (linux64, C++) logging started Mon Nov 11 16:40:23 2024

Academic license - for non-commercial use only

Gurobi 8.1.1 (linux64, C++) logging started Mon Nov 11 16:40:27 2024

Academic license - for non-commercial use only

Gurobi 8.1.1 (linux64, C++) logging started Mon Nov 11 16:40:32 2024

Academic license - for non-commercial use only

Gurobi 8.1.1 (linux64, C++) logging started Mon Nov 11 16:57:22 2024

Academic license - for non-commercial use only

Gurobi 8.1.1 (linux64, C++) logging started Mon Nov 11 16:57:34 2024

Academic license - for non-commercial use only

Gurobi 8.1.1 (linux64, C++) logging started Mon Nov 11 16:58:07 2024

Academic license - for non-commercial use only

Gurobi 8.1.1 (linux64, C++) logging started Mon Nov 11 17:02:34 2024

Academic license - for non-commercial use only

Gurobi 8.1.1 (linux64, C++) logging started Mon Nov 11 17:02:57 2024

Academic license - for non-commercial use only

Gurobi 8.1.1 (linux64, C++) logging started Mon Nov 11 17:04:56 2024

Academic license - for non-commercial use only

Gurobi 8.1.1 (linux64, C++) logging started Mon Nov 11 17:05:40 2024

Academic license - for non-commercial use only

Gurobi 8.1.1 (linux64, C++) logging started Mon Nov 11 18:10:45 2024

Academic license - for non-commercial use only

Gurobi 8.1.1 (linux64, C++) logging started Mon Nov 11 18:46:32 2024

Academic license - for non-commercial use only

Gurobi 8.1.1 (linux64, C++) logging started Mon Nov 11 18:57:03 2024

Academic license - for non-commercial use only

Gurobi 8.1.1 (linux64, C++) logging started Mon Nov 11 18:57:07 2024

Academic license - for non-commercial use only

Gurobi 8.1.1 (linux64, C++) logging started Mon Nov 11 18:59:00 2024

Academic license - for non-commercial use only

Gurobi 8.1.1 (linux64, C++) logging started Mon Nov 11 19:08:43 2024

Academic license - for non-commercial use only

Gurobi 8.1.1 (linux64, C++) logging started Mon Nov 11 19:08:59 2024

Academic license - for non-commercial use only

Gurobi 8.1.1 (linux64, C++) logging started Mon Nov 11 19:09:18 2024

Academic license - for non-commercial use only

Gurobi 8.1.1 (linux64, C++) logging started Mon Nov 11 19:09:26 2024

Academic license - for non-commercial use only

Gurobi 8.1.1 (linux64, C++) logging started Mon Nov 11 19:09:40 2024

Academic license - for non-commercial use only

Gurobi 8.1.1 (linux64, C++) logging started Mon Nov 11 20:47:15 2024

Academic license - for non-commercial use only

Gurobi 8.1.1 (linux64, C++) logging started Mon Nov 11 20:48:17 2024

Academic license - for non-commercial use only

Gurobi 8.1.1 (linux64, C++) logging started Mon Nov 11 22:22:34 2024

Academic license - for non-commercial use only

Gurobi 8.1.1 (linux64, C++) logging started Mon Nov 11 22:23:22 2024

Academic license - for non-commercial use only

Gurobi 8.1.1 (linux64, C++) logging started Mon Nov 11 22:23:34 2024

Academic license - for non-commercial use only

Gurobi 8.1.1 (linux64, C++) logging started Mon Nov 11 22:23:55 2024

Academic license - for non-commercial use only

Gurobi 8.1.1 (linux64, C++) logging started Mon Nov 11 22:24:04 2024

Academic license - for non-commercial use only

Gurobi 8.1.1 (linux64, C++) logging started Mon Nov 11 22:24:33 2024

Academic license - for non-commercial use only

Gurobi 8.1.1 (linux64, C++) logging started Mon Nov 11 22:24:38 2024

Academic license - for non-commercial use only

Gurobi 8.1.1 (linux64, C++) logging started Mon Nov 11 22:24:48 2024

Academic license - for non-commercial use only

Gurobi 8.1.1 (linux64, C++) logging started Mon Nov 11 22:26:44 2024

Academic license - for non-commercial use only

Gurobi 8.1.1 (linux64, C++) logging started Mon Nov 11 22:26:53 2024

Academic license - for non-commercial use only

Gurobi 8.1.1 (linux64, C++) logging started Mon Nov 11 22:33:35 2024

Academic license - for non-commercial use only

Gurobi 8.1.1 (linux64, C++) logging started Mon Nov 11 22:33:41 2024

Academic license - for non-commercial use only

Gurobi 8.1.1 (linux64, C++) logging started Mon Nov 11 22:33:46 2024

Academic license - for non-commercial use only

Gurobi 8.1.1 (linux64, C++) logging started Mon Nov 11 22:33:51 2024

Academic license - for non-commercial use only
